c 
p cnf 123 200
3 21 22 0
3 21 -22 0
3 -21 22 0
3 -21 -22 0
17 15 23 0
-23 4 24 0
-24 -19 -11 0
2 25 26 0
2 25 -26 0
2 -25 26 0
2 -25 -26 0
20 -6 27 0
-27 -5 -16 0
-16 28 29 0
-16 28 -29 0
-16 -28 29 0
-16 -28 -29 0
-2 3 30 0
-30 -17 31 0
-31 -1 19 0
5 32 33 0
5 32 -33 0
5 -32 33 0
5 -32 -33 0
19 10 34 0
-34 -12 35 0
-35 20 6 0
-2 9 36 0
-2 9 -36 0
16 -4 14 0
11 12 -10 0
18 37 38 0
18 37 -38 0
18 -37 38 0
18 -37 -38 0
15 39 40 0
15 39 -40 0
15 -39 40 0
15 -39 -40 0
17 -14 41 0
-41 16 42 0
-42 -20 -15 0
-15 -16 43 0
-15 -16 -43 0
4 10 44 0
-44 2 7 0
19 -4 45 0
-45 20 46 0
-46 2 -12 0
-10 -14 47 0
-47 15 -7 0
-14 48 49 0
-14 48 -49 0
-14 -48 49 0
-14 -48 -49 0
6 8 50 0
6 8 -50 0
8 51 52 0
8 51 -52 0
8 -51 52 0
8 -51 -52 0
6 53 54 0
6 53 -54 0
6 -53 54 0
6 -53 -54 0
-13 -16 55 0
-13 -16 -55 0
6 5 56 0
6 5 -56 0
7 57 58 0
7 57 -58 0
7 -57 58 0
7 -57 -58 0
11 -7 59 0
-59 -4 60 0
-60 -19 8 0
15 -8 2 0
17 -3 19 0
8 -4 61 0
-61 -15 -10 0
-5 -12 6 0
-12 3 62 0
-62 -5 63 0
-63 13 20 0
6 19 64 0
-64 14 65 0
-65 -18 -8 0
19 7 18 0
-3 13 66 0
-66 -8 18 0
-12 16 67 0
-67 1 -5 0
16 -18 68 0
-68 -6 69 0
-69 -3 19 0
-20 -13 70 0
-20 -13 -70 0
-15 9 71 0
-71 -10 72 0
-72 13 -11 0
-13 8 73 0
-13 8 -73 0
13 -10 6 0
5 -16 -2 0
-18 74 75 0
-18 74 -75 0
-18 -74 75 0
-18 -74 -75 0
18 -14 -20 0
-9 -18 76 0
-76 12 77 0
-77 17 13 0
-6 78 79 0
-6 78 -79 0
-6 -78 79 0
-6 -78 -79 0
-10 -19 80 0
-80 6 81 0
-81 -1 3 0
-10 -3 7 0
-15 82 83 0
-15 82 -83 0
-15 -82 83 0
-15 -82 -83 0
20 -1 84 0
-84 -19 85 0
-85 9 17 0
-11 1 86 0
-11 1 -86 0
-17 9 -8 0
-5 -12 87 0
-5 -12 -87 0
-1 -16 88 0
-88 -14 89 0
-89 -19 7 0
18 13 90 0
-90 7 -8 0
-13 -5 -17 0
3 1 91 0
-91 -7 92 0
-92 -20 -17 0
-1 6 93 0
-93 11 94 0
-94 -5 -3 0
-19 -17 95 0
-95 5 96 0
-96 2 9 0
5 16 97 0
5 16 -97 0
14 -10 98 0
14 -10 -98 0
-13 99 100 0
-13 99 -100 0
-13 -99 100 0
-13 -99 -100 0
-20 101 102 0
-20 101 -102 0
-20 -101 102 0
-20 -101 -102 0
6 -15 18 0
2 -4 103 0
-103 -19 17 0
-6 -20 104 0
-104 13 105 0
-105 14 3 0
-12 -3 106 0
-106 18 -14 0
-13 6 107 0
-107 -2 108 0
-108 8 4 0
-6 109 110 0
-6 109 -110 0
-6 -109 110 0
-6 -109 -110 0
-17 20 111 0
-111 -2 8 0
-3 -18 112 0
-112 -12 11 0
10 -16 19 0
-18 12 113 0
-113 3 -20 0
19 -4 114 0
-114 6 115 0
-115 11 10 0
6 -12 5 0
2 12 -17 0
-20 13 116 0
-116 8 16 0
5 -9 117 0
5 -9 -117 0
-16 4 118 0
-118 -10 119 0
-119 1 6 0
-2 120 121 0
-2 120 -121 0
-2 -120 121 0
-2 -120 -121 0
10 -14 122 0
-122 -18 123 0
-123 4 13 0
